RLT07
Position Depot: Center
Horizon for Depot: Large
Position of customers: Random
Distribution of the demand: Small
Width of time windows: Tight
Distribution of the service: Large

VEHICLE 
NUMBER 	 CAPACITY 
 8 	 	 92 
 
CUSTOMER
CUST NO. 	 XCOORD.  	 YCOORD. 	 DEMAND 	 READY TIME 	 DUE DATE 	 SERVICE TIME 
 0 	 	 500 	 	 500 	 	 0 	 	 0 	 	 4606 	 	 0 
  1 	 	 580 	 	 137 	 	 10 	 	 213 	 	 408 	 	 100 
  2 	 	 446 	 	 220 	 	 6 	 	 3559 	 	 3633 	 	 100 
  3 	 	 446 	 	 163 	 	 9 	 	 2267 	 	 2449 	 	 194 
  4 	 	 473 	 	 970 	 	 10 	 	 1424 	 	 1620 	 	 150 
  5 	 	 196 	 	 822 	 	 10 	 	 2310 	 	 2441 	 	 114 
  6 	 	 970 	 	 660 	 	 5 	 	 4526 	 	 4606 	 	 161 
  7 	 	 52 	 	 807 	 	 9 	 	 3075 	 	 3216 	 	 171 
  8 	 	 916 	 	 56 	 	 5 	 	 3742 	 	 3860 	 	 107 
  9 	 	 592 	 	 335 	 	 10 	 	 3543 	 	 3625 	 	 139 
  10 	 	 469 	 	 48 	 	 6 	 	 2267 	 	 2453 	 	 114 
  11 	 	 806 	 	 607 	 	 5 	 	 586 	 	 745 	 	 155 
  12 	 	 520 	 	 967 	 	 5 	 	 3393 	 	 3534 	 	 171 
  13 	 	 969 	 	 600 	 	 6 	 	 3946 	 	 4123 	 	 191 
  14 	 	 664 	 	 721 	 	 9 	 	 4081 	 	 4237 	 	 137 
  15 	 	 769 	 	 473 	 	 8 	 	 1930 	 	 2033 	 	 175 
  16 	 	 802 	 	 550 	 	 6 	 	 1048 	 	 1113 	 	 135 
  17 	 	 752 	 	 14 	 	 8 	 	 3627 	 	 3721 	 	 126 
  18 	 	 296 	 	 904 	 	 9 	 	 2435 	 	 2522 	 	 110 
  19 	 	 936 	 	 841 	 	 6 	 	 4310 	 	 4383 	 	 184 
  20 	 	 170 	 	 174 	 	 8 	 	 1326 	 	 1430 	 	 197 
  21 	 	 431 	 	 828 	 	 7 	 	 2734 	 	 2823 	 	 171 
  22 	 	 237 	 	 959 	 	 8 	 	 2663 	 	 2715 	 	 199 
  23 	 	 771 	 	 767 	 	 10 	 	 1844 	 	 1937 	 	 180 
  24 	 	 299 	 	 58 	 	 5 	 	 1820 	 	 1877 	 	 154 
  25 	 	 604 	 	 4 	 	 9 	 	 463 	 	 557 	 	 187 
  26 	 	 810 	 	 615 	 	 5 	 	 4320 	 	 4482 	 	 192 
  27 	 	 752 	 	 433 	 	 10 	 	 1128 	 	 1271 	 	 151 
  28 	 	 875 	 	 230 	 	 10 	 	 3961 	 	 4153 	 	 181 
  29 	 	 286 	 	 124 	 	 9 	 	 2333 	 	 2389 	 	 137 
  30 	 	 648 	 	 538 	 	 5 	 	 2312 	 	 2376 	 	 111 
  31 	 	 379 	 	 364 	 	 5 	 	 4046 	 	 4211 	 	 135 
  32 	 	 979 	 	 727 	 	 5 	 	 392 	 	 583 	 	 134 
  33 	 	 346 	 	 977 	 	 7 	 	 1947 	 	 2068 	 	 200 
  34 	 	 501 	 	 270 	 	 5 	 	 1801 	 	 1955 	 	 148 
  35 	 	 481 	 	 166 	 	 9 	 	 3298 	 	 3465 	 	 155 
  36 	 	 226 	 	 467 	 	 9 	 	 580 	 	 759 	 	 150 
  37 	 	 389 	 	 193 	 	 6 	 	 1061 	 	 1120 	 	 180 
  38 	 	 146 	 	 467 	 	 7 	 	 2850 	 	 2924 	 	 132 
  39 	 	 874 	 	 989 	 	 6 	 	 2553 	 	 2682 	 	 102 
  40 	 	 901 	 	 689 	 	 7 	 	 3477 	 	 3643 	 	 133 
  41 	 	 667 	 	 348 	 	 10 	 	 654 	 	 707 	 	 134 
  42 	 	 955 	 	 435 	 	 10 	 	 1211 	 	 1320 	 	 176 
  43 	 	 852 	 	 908 	 	 7 	 	 3128 	 	 3179 	 	 130 
  44 	 	 558 	 	 727 	 	 10 	 	 1382 	 	 1488 	 	 185 
  45 	 	 122 	 	 981 	 	 6 	 	 721 	 	 820 	 	 193 
  46 	 	 644 	 	 980 	 	 6 	 	 396 	 	 551 	 	 193 
  47 	 	 350 	 	 147 	 	 10 	 	 252 	 	 421 	 	 181 
  48 	 	 850 	 	 611 	 	 6 	 	 467 	 	 525 	 	 191 
  49 	 	 779 	 	 102 	 	 5 	 	 1467 	 	 1607 	 	 108 
  50 	 	 385 	 	 585 	 	 9 	 	 1711 	 	 1842 	 	 150 
  51 	 	 298 	 	 175 	 	 9 	 	 2328 	 	 2457 	 	 135 
  52 	 	 596 	 	 902 	 	 7 	 	 1817 	 	 1923 	 	 115 
  53 	 	 753 	 	 971 	 	 8 	 	 1094 	 	 1236 	 	 136 
  54 	 	 360 	 	 611 	 	 9 	 	 2886 	 	 2949 	 	 167 
  55 	 	 58 	 	 92 	 	 8 	 	 2684 	 	 2868 	 	 145 
  56 	 	 553 	 	 246 	 	 7 	 	 4193 	 	 4316 	 	 149 
  57 	 	 529 	 	 558 	 	 7 	 	 1322 	 	 1410 	 	 168 
  58 	 	 102 	 	 925 	 	 10 	 	 1190 	 	 1296 	 	 189 
  59 	 	 309 	 	 445 	 	 8 	 	 2070 	 	 2248 	 	 180 
  60 	 	 891 	 	 639 	 	 10 	 	 2931 	 	 3060 	 	 156 
  61 	 	 458 	 	 57 	 	 8 	 	 4451 	 	 4606 	 	 100 
  62 	 	 591 	 	 964 	 	 5 	 	 2351 	 	 2529 	 	 123 
  63 	 	 658 	 	 74 	 	 5 	 	 1888 	 	 2030 	 	 157 
  64 	 	 375 	 	 678 	 	 7 	 	 1169 	 	 1290 	 	 198 
  65 	 	 686 	 	 104 	 	 10 	 	 968 	 	 1143 	 	 142 
  66 	 	 560 	 	 237 	 	 7 	 	 277 	 	 341 	 	 115 
  67 	 	 188 	 	 508 	 	 8 	 	 4128 	 	 4201 	 	 151 
  68 	 	 62 	 	 587 	 	 10 	 	 1194 	 	 1262 	 	 138 
  69 	 	 11 	 	 645 	 	 9 	 	 3703 	 	 3815 	 	 178 
  70 	 	 803 	 	 984 	 	 10 	 	 1838 	 	 1943 	 	 191 
  71 	 	 133 	 	 567 	 	 9 	 	 3282 	 	 3365 	 	 174 
  72 	 	 867 	 	 711 	 	 6 	 	 1212 	 	 1352 	 	 186 
  73 	 	 868 	 	 863 	 	 5 	 	 3018 	 	 3075 	 	 194 
  74 	 	 945 	 	 698 	 	 10 	 	 3982 	 	 4147 	 	 111 
  75 	 	 35 	 	 704 	 	 10 	 	 3627 	 	 3712 	 	 148 
  76 	 	 967 	 	 662 	 	 7 	 	 484 	 	 543 	 	 167 
  77 	 	 38 	 	 188 	 	 6 	 	 2218 	 	 2402 	 	 115 
  78 	 	 778 	 	 589 	 	 7 	 	 1482 	 	 1541 	 	 175 
  79 	 	 109 	 	 489 	 	 6 	 	 2042 	 	 2121 	 	 171 
  80 	 	 800 	 	 833 	 	 5 	 	 2652 	 	 2735 	 	 129 
  81 	 	 232 	 	 344 	 	 9 	 	 3537 	 	 3676 	 	 172 
  82 	 	 784 	 	 983 	 	 10 	 	 421 	 	 616 	 	 108 
  83 	 	 749 	 	 279 	 	 9 	 	 4458 	 	 4555 	 	 101 
  84 	 	 765 	 	 559 	 	 10 	 	 2966 	 	 3091 	 	 171 
  85 	 	 973 	 	 174 	 	 10 	 	 456 	 	 631 	 	 170 
  86 	 	 171 	 	 924 	 	 7 	 	 4057 	 	 4200 	 	 188 
  87 	 	 782 	 	 565 	 	 8 	 	 4007 	 	 4177 	 	 144 
  88 	 	 869 	 	 418 	 	 5 	 	 581 	 	 656 	 	 129 
  89 	 	 826 	 	 332 	 	 6 	 	 208 	 	 408 	 	 190 
  90 	 	 61 	 	 607 	 	 7 	 	 1735 	 	 1891 	 	 148 
  91 	 	 922 	 	 52 	 	 10 	 	 517 	 	 677 	 	 197 
  92 	 	 831 	 	 896 	 	 10 	 	 2175 	 	 2373 	 	 147 
  93 	 	 714 	 	 74 	 	 5 	 	 2643 	 	 2738 	 	 144 
  94 	 	 397 	 	 478 	 	 6 	 	 1356 	 	 1513 	 	 190 
  95 	 	 483 	 	 916 	 	 6 	 	 279 	 	 457 	 	 195 
  96 	 	 967 	 	 163 	 	 6 	 	 1468 	 	 1538 	 	 176 
  97 	 	 757 	 	 764 	 	 9 	 	 333 	 	 405 	 	 124 
  98 	 	 463 	 	 874 	 	 7 	 	 422 	 	 574 	 	 134 
  99 	 	 843 	 	 431 	 	 10 	 	 1857 	 	 2022 	 	 115 
  100 	 	 71 	 	 217 	 	 6 	 	 1753 	 	 1810 	 	 122 
 